Set parameter TokenServer to value "hpc-licenses.hpcc.usc.edu"
Set parameter TimeLimit to value 3600
Gurobi Optimizer version 9.5.1 build v9.5.1rc2 (linux64)
Thread count: 20 physical cores, 20 logical processors, using up to 20 threads
Optimize a model with 14015 rows, 10581 columns and 64598 nonzeros
Model fingerprint: 0x65cdc570
Variable types: 10514 continuous, 67 integer (67 binary)
Coefficient statistics:
  Matrix range     [1e+00, 1e+00]
  Objective range  [5e-03, 2e+00]
  Bounds range     [1e+00, 1e+00]
  RHS range        [1e+00, 1e+02]
Presolve removed 3062 rows and 3049 columns
Presolve time: 0.23s
Presolved: 10953 rows, 7532 columns, 59847 nonzeros
Variable types: 7472 continuous, 60 integer (60 binary)
Found heuristic solution: objective 297.1285505

Root relaxation: objective 3.024900e+02, 3846 iterations, 0.28 seconds (0.32 work units)

    Nodes    |    Current Node    |     Objective Bounds      |     Work
 Expl Unexpl |  Obj  Depth IntInf | Incumbent    BestBd   Gap | It/Node Time

     0     0  302.49004    0    6  297.12855  302.49004  1.80%     -    0s
H    0     0                     297.6370446  302.49004  1.63%     -    0s
     0     0  302.46440    0   14  297.63704  302.46440  1.62%     -    1s
     0     0  302.46440    0   14  297.63704  302.46440  1.62%     -    1s
     0     0  302.41970    0   18  297.63704  302.41970  1.61%     -    1s
     0     0  302.41459    0   17  297.63704  302.41459  1.61%     -    1s
     0     0  302.39833    0   19  297.63704  302.39833  1.60%     -    1s
     0     0  302.39555    0   18  297.63704  302.39555  1.60%     -    1s
     0     0  302.37980    0   20  297.63704  302.37980  1.59%     -    2s
H    0     0                     299.4820399  302.37980  0.97%     -    2s
     0     0  302.37926    0   23  299.48204  302.37926  0.97%     -    2s
     0     0  302.36287    0   14  299.48204  302.36287  0.96%     -    2s
     0     0  302.36274    0   16  299.48204  302.36274  0.96%     -    2s
     0     0  302.35591    0   18  299.48204  302.35591  0.96%     -    2s
     0     0  302.35473    0   16  299.48204  302.35473  0.96%     -    2s
H    0     0                     300.0391523  302.35473  0.77%     -    2s
     0     0  302.34620    0   18  300.03915  302.34620  0.77%     -    2s
     0     0  302.34598    0   16  300.03915  302.34598  0.77%     -    3s
     0     0  302.29926    0   18  300.03915  302.29926  0.75%     -    3s
     0     0  302.29926    0   23  300.03915  302.29926  0.75%     -    3s
     0     0  302.29109    0   20  300.03915  302.29109  0.75%     -    3s
     0     0  302.27787    0   19  300.03915  302.27787  0.75%     -    3s
     0     0  302.23158    0   23  300.03915  302.23158  0.73%     -    3s
     0     0  302.23158    0   23  300.03915  302.23158  0.73%     -    4s
     0     2  302.23158    0   23  300.03915  302.23158  0.73%     -    4s
     1     4  302.23158    1   19  300.03915  302.23158  0.73%   905    5s
    87    34  302.23158    9   12  300.03915  302.23158  0.73%   320   10s
H   90    34                     300.0609520  302.23158  0.72%   318   10s
*  195    57              12     300.0840216  302.23158  0.72%   258   13s
   324    29  301.28886   18    2  300.08402  302.23158  0.72%   193   15s
   458    40     cutoff   23       300.08402  301.89631  0.60%   188   22s
*  655    28              23     300.1154960  301.86087  0.58%   162   23s
   780    18  300.31888   15    8  300.11550  301.78366  0.56%   149   25s

Cutting planes:
  Gomory: 5
  MIR: 75
  Flow cover: 13
  RLT: 23
  Relax-and-lift: 11

Explored 1109 nodes (155453 simplex iterations) in 29.14 seconds (9.17 work units)
Thread count was 20 (of 20 available processors)

Solution count 7: 300.115 300.084 300.061 ... 297.129

Optimal solution found (tolerance 1.00e-04)
Best objective 3.001154959752e+02, best bound 3.001154959752e+02, gap 0.0000%



#########node  1
V2.9
#########node  2
V1.9
#########node  3
V1.8
#########node  4
0.0,1.0
#########node  5
1.0,0.0
#########node  6
0.0,1.0
#########node  7
1.0,0.0


Total Solving Time 30.09875988960266
obj value 300.1154959752322
Policy Regret train (Sum) 0.48672591660676534
Best Treatment Found train (%) 90.60000000000001
treatment classification acc train (%) 67.2
Policy Regret test (Sum) 113.74902468076037
Best Treatment Found test (%) 61.839999999999996
treatment classification acc test (%) 66.67999999999999
Set parameter TokenServer to value "hpc-licenses.hpcc.usc.edu"
Set parameter TimeLimit to value 3600
Gurobi Optimizer version 9.5.1 build v9.5.1rc2 (linux64)
Thread count: 20 physical cores, 20 logical processors, using up to 20 threads
Optimize a model with 14015 rows, 10581 columns and 64598 nonzeros
Model fingerprint: 0x65cdc570
Variable types: 10514 continuous, 67 integer (67 binary)
Coefficient statistics:
  Matrix range     [1e+00, 1e+00]
  Objective range  [5e-03, 2e+00]
  Bounds range     [1e+00, 1e+00]
  RHS range        [1e+00, 1e+02]
Presolve removed 3062 rows and 3049 columns
Presolve time: 0.26s
Presolved: 10953 rows, 7532 columns, 59847 nonzeros
Variable types: 7472 continuous, 60 integer (60 binary)
Found heuristic solution: objective 297.1285505

Root relaxation: objective 3.024900e+02, 3846 iterations, 0.30 seconds (0.32 work units)

    Nodes    |    Current Node    |     Objective Bounds      |     Work
 Expl Unexpl |  Obj  Depth IntInf | Incumbent    BestBd   Gap | It/Node Time

     0     0  302.49004    0    6  297.12855  302.49004  1.80%     -    0s
H    0     0                     297.6370446  302.49004  1.63%     -    0s
     0     0  302.46440    0   14  297.63704  302.46440  1.62%     -    1s
     0     0  302.46440    0   14  297.63704  302.46440  1.62%     -    1s
     0     0  302.41970    0   18  297.63704  302.41970  1.61%     -    1s
     0     0  302.41459    0   17  297.63704  302.41459  1.61%     -    1s
     0     0  302.39833    0   19  297.63704  302.39833  1.60%     -    1s
     0     0  302.39555    0   18  297.63704  302.39555  1.60%     -    1s
     0     0  302.37980    0   20  297.63704  302.37980  1.59%     -    2s
H    0     0                     299.4820399  302.37980  0.97%     -    2s
     0     0  302.37926    0   23  299.48204  302.37926  0.97%     -    2s
     0     0  302.36287    0   14  299.48204  302.36287  0.96%     -    2s
     0     0  302.36274    0   16  299.48204  302.36274  0.96%     -    2s
     0     0  302.35591    0   18  299.48204  302.35591  0.96%     -    2s
     0     0  302.35473    0   16  299.48204  302.35473  0.96%     -    2s
H    0     0                     300.0391523  302.35473  0.77%     -    3s
     0     0  302.34620    0   18  300.03915  302.34620  0.77%     -    3s
     0     0  302.34598    0   16  300.03915  302.34598  0.77%     -    3s
     0     0  302.29926    0   18  300.03915  302.29926  0.75%     -    3s
     0     0  302.29926    0   23  300.03915  302.29926  0.75%     -    3s
     0     0  302.29109    0   20  300.03915  302.29109  0.75%     -    3s
     0     0  302.27787    0   19  300.03915  302.27787  0.75%     -    3s
     0     0  302.23158    0   23  300.03915  302.23158  0.73%     -    4s
     0     0  302.23158    0   23  300.03915  302.23158  0.73%     -    4s
     0     2  302.23158    0   23  300.03915  302.23158  0.73%     -    4s
     1     4  302.23158    1   19  300.03915  302.23158  0.73%   905    5s
    87    34  302.23158    9   12  300.03915  302.23158  0.73%   320   10s
H   90    34                     300.0609520  302.23158  0.72%   318   10s
*  195    57              12     300.0840216  302.23158  0.72%   258   13s
   324    29  301.28886   18    2  300.08402  302.23158  0.72%   193   15s
   458    40     cutoff   23       300.08402  301.89631  0.60%   188   22s
*  655    28              23     300.1154960  301.86087  0.58%   162   23s
   780    18  300.31888   15    8  300.11550  301.78366  0.56%   149   25s

Cutting planes:
  Gomory: 5
  MIR: 75
  Flow cover: 13
  RLT: 23
  Relax-and-lift: 11

Explored 1109 nodes (155453 simplex iterations) in 29.34 seconds (9.17 work units)
Thread count was 20 (of 20 available processors)

Solution count 7: 300.115 300.084 300.061 ... 297.129

Optimal solution found (tolerance 1.00e-04)
Best objective 3.001154959752e+02, best bound 3.001154959752e+02, gap 0.0000%



#########node  1
V2.9
#########node  2
V1.9
#########node  3
V1.8
#########node  4
0.0,1.0
#########node  5
1.0,0.0
#########node  6
0.0,1.0
#########node  7
1.0,0.0


Total Solving Time 30.334449291229248
obj value 300.1154959752322
Policy Regret train (Sum) 0.48672591660676534
Best Treatment Found train (%) 90.60000000000001
treatment classification acc train (%) 67.2
Policy Regret test (Sum) 113.74902468076037
Best Treatment Found test (%) 61.839999999999996
treatment classification acc test (%) 66.67999999999999
